#######################################
### Exact MIP solver for the HHCRSP ###
#######################################
-- Instance file: new-instances/HHCRSP_300_60_52_0.8_C_C.txt
-- Max threads: 4
-- Time limit: 999999 seconds
-- Use initial solution: No
Trivial flow violations prevented generating 1193748 variables.
Version identifier: 20.1.0.0 | 2020-11-10 | 9bedb6d68
CPXPARAM_Threads                                 4
CPXPARAM_TimeLimit                               999999
Parallel mode: deterministic, using up to 4 threads for concurrent optimization:
 * Starting dual Simplex on 1 thread...
 * Starting Barrier on 3 threads...
Tried aggregator 1 time.
LP Presolve eliminated 48342 rows and 11220 columns.
Reduced LP has 1334778 rows, 1265418 columns, and 31492815 nonzeros.
Presolve time = 36.62 sec. (6894.36 ticks)
Symmetry aggregator did 2181207 additional substitutions.
Initializing dual steep norms . . .

Iteration log . . .
Iteration:     1   Dual objective     =             0.333333
Iteration:  1325   Dual objective     =           286.666667

Dual crossover.
  Dual:  Fixing 1818 variables.
     1817 DMoves:  Infeasibility  2.97506464e-12  Objective  2.88333333e+02
        0 DMoves:  Infeasibility  1.91866893e-12  Objective  2.88333333e+02
  Dual:  Pushed 29, exchanged 1789.
  Primal:  Fixing 1422 variables.
     1421 PMoves:  Infeasibility  0.00000000e+00  Objective  2.88333333e+02
        0 PMoves:  Infeasibility  0.00000000e+00  Objective  2.88333333e+02
  Primal:  Pushed 1271, exchanged 151.

Dual simplex solved model.


Solution status from MIP model:
-- Processing time: 60.319 sec.
-- Memory used: 1168.17 MB
-- Best bound: inf
-- Obj value: 288.333
-- Gap: inf%
-- Total distance: 865
-- Total tardiness: 0
-- Largest tardiness: 0
